
n_res = 6;
rcap = [66, 55, 525, 557, 544, 544];
rtype = [1, 1, 2, 2, 2, 2];
n_tasks = 100;
modes =  [{1, 2, 3}, {4, 5, 6}, {7, 8, 9}, {10, 11, 12}, {13, 14, 15}, {16, 17, 18}, {19, 20, 21}, {22, 23, 24}, {25, 26, 27}, {28, 29, 30}, {31, 32, 33}, {34, 35, 36}, {37, 38, 39}, {40, 41, 42}, {43, 44, 45}, {46, 47, 48}, {49, 50, 51}, {52, 53, 54}, {55, 56, 57}, {58, 59, 60}, {61, 62, 63}, {64, 65, 66}, {67, 68, 69}, {70, 71, 72}, {73, 74, 75}, {76, 77, 78}, {79, 80, 81}, {82, 83, 84}, {85, 86, 87}, {88, 89, 90}, {91, 92, 93}, {94, 95, 96}, {97, 98, 99}, {100, 101, 102}, {103, 104, 105}, {106, 107, 108}, {109, 110, 111}, {112, 113, 114}, {115, 116, 117}, {118, 119, 120}, {121, 122, 123}, {124, 125, 126}, {127, 128, 129}, {130, 131, 132}, {133, 134, 135}, {136, 137, 138}, {139, 140, 141}, {142, 143, 144}, {145, 146, 147}, {148, 149, 150}, {151, 152, 153}, {154, 155, 156}, {157, 158, 159}, {160, 161, 162}, {163, 164, 165}, {166, 167, 168}, {169, 170, 171}, {172, 173, 174}, {175, 176, 177}, {178, 179, 180}, {181, 182, 183}, {184, 185, 186}, {187, 188, 189}, {190, 191, 192}, {193, 194, 195}, {196, 197, 198}, {199, 200, 201}, {202, 203, 204}, {205, 206, 207}, {208, 209, 210}, {211, 212, 213}, {214, 215, 216}, {217, 218, 219}, {220, 221, 222}, {223, 224, 225}, {226, 227, 228}, {229, 230, 231}, {232, 233, 234}, {235, 236, 237}, {238, 239, 240}, {241, 242, 243}, {244, 245, 246}, {247, 248, 249}, {250, 251, 252}, {253, 254, 255}, {256, 257, 258}, {259, 260, 261}, {262, 263, 264}, {265, 266, 267}, {268, 269, 270}, {271, 272, 273}, {274, 275, 276}, {277, 278, 279}, {280, 281, 282}, {283, 284, 285}, {286, 287, 288}, {289, 290, 291}, {292, 293, 294}, {295, 296, 297}, {298, 299, 300}];
succ =  [{8, 4}, {26, 17, 16, 14, 13, 12, 11}, {26, 25, 16, 14, 13, 8}, {26, 23, 19, 14, 13, 12, 10}, {26, 25, 19, 18, 13, 12}, {23, 14, 13, 12}, {32, 28, 27, 26, 25, 24, 23, 20, 19, 18}, {24, 23, 19, 18, 12}, {32, 30, 28, 27, 24, 23, 21, 19}, {32, 30, 29, 27, 25, 24, 18}, {32, 29, 28, 27, 25, 24, 23}, {32, 30, 29, 28, 27, 21, 20}, {35, 32, 30, 29, 28, 24, 22}, {32, 30, 29, 28, 24, 18}, {36, 35, 34, 32, 30, 29, 22}, {32, 29, 28, 18}, {30, 29, 28, 18}, {44, 43, 40, 39, 36, 35, 33, 31}, {29, 22}, {56, 53, 43, 41, 40, 39, 38, 37, 36, 34}, {41, 39, 38, 37, 36, 35, 34}, {56, 43, 40, 39, 33, 31}, {37, 36, 35, 34, 31}, {53, 43, 42, 41, 39, 38, 34, 33}, {44, 43, 40, 35, 31}, {41, 40, 39, 38, 30}, {44, 40, 38, 35, 33}, {53, 49, 48, 46, 41, 38, 36, 34}, {57, 56, 49, 47, 44, 43, 39, 37}, {57, 56, 48, 44, 43, 33}, {59, 53, 51, 48, 46, 42, 41, 38}, {59, 56, 51, 49, 46, 44, 41, 38}, {49, 47, 45, 37}, {61, 58, 57, 52, 51, 50, 47, 44}, {67, 63, 59, 58, 56, 55, 53, 51, 49, 48}, {61, 59, 57, 52, 47, 42}, {73, 67, 63, 61, 59, 58, 55, 52, 51, 46}, {61, 60, 58, 57, 55, 54, 50, 47}, {69, 67, 64, 63, 61, 59, 58, 48}, {67, 60, 57, 51, 50, 45}, {73, 64, 63, 60, 58, 57, 54, 52}, {67, 60, 50, 45}, {67, 62, 54, 52, 50}, {67, 60, 45}, {76, 70, 69, 64, 62, 54}, {70, 69, 62, 60, 54}, {76, 73, 72, 71, 69, 68, 67, 64, 62}, {73, 62, 60, 54}, {76, 73, 71, 70, 69, 65, 64, 62}, {73, 71, 69, 66, 64, 63}, {76, 72, 71, 68, 65, 62}, {76, 75, 72, 71, 70, 69, 66}, {76, 75, 71, 70, 69, 65}, {77, 72, 71, 68, 65}, {76, 72, 71, 66, 64}, {76, 75, 71, 65, 62}, {84, 79, 76, 75, 71, 69, 66}, {75, 72, 71, 62}, {84, 79, 77, 76, 75, 71, 66}, {77, 76, 71, 65}, {83, 82, 80, 78, 77, 75, 74, 72, 70}, {100, 90, 84, 80, 79, 77, 66}, {100, 87, 85, 84, 83, 82, 80, 74, 72}, {100, 84, 83, 80, 79, 77, 75, 74}, {90, 84, 79, 66}, {87, 86, 85, 83, 82, 78, 74}, {100, 90, 87, 86, 85, 80, 79}, {99, 84, 81, 80, 75}, {99, 96, 90, 83, 81, 77}, {99, 95, 90, 87, 84, 79}, {100, 90, 86, 81, 80}, {99, 96, 90, 86, 79}, {100, 99, 96, 77}, {99, 98, 97, 96, 95, 81}, {98, 94, 90, 89, 88, 86}, {99, 98, 97, 96, 94, 92, 86}, {97, 94, 89, 88, 87}, {95, 94, 92, 89, 88}, {81}, {97, 96, 94, 93, 92, 91}, {94, 92, 89, 88}, {95, 94, 93, 92, 91}, {97, 95, 94, 91}, {96, 93, 91}, {99, 93, 92}, {95, 91}, {98, 92}, {93}, {91}, {92}, {}, {}, {}, {}, {}, {}, {}, {}, {}, {}];
n_opt = 300;
dur = [4, 9, 10, 7, 8, 10, 7, 9, 10, 1, 3, 6, 7, 8, 9, 1, 2, 8, 4, 6, 9, 6, 7, 9, 3, 4, 9, 3, 6, 8, 1, 5, 6, 3, 6, 10, 2, 3, 6, 5, 6, 8, 5, 6, 8, 1, 5, 8, 3, 5, 8, 2, 4, 7, 1, 2, 3, 4, 7, 10, 5, 6, 7, 2, 5, 7, 1, 3, 10, 7, 9, 10, 7, 9, 10, 1, 2, 5, 6, 7, 9, 2, 3, 7, 1, 8, 10, 1, 3, 6, 5, 7, 8, 4, 6, 8, 1, 3, 10, 6, 9, 10, 2, 6, 10, 1, 8, 10, 1, 3, 4, 3, 9, 10, 4, 5, 9, 2, 3, 8, 2, 4, 9, 2, 5, 6, 1, 4, 8, 1, 8, 9, 2, 8, 9, 2, 4, 5, 6, 8, 9, 3, 9, 10, 6, 7, 9, 3, 4, 7, 5, 6, 7, 1, 9, 10, 6, 7, 8, 3, 7, 10, 2, 3, 9, 1, 6, 8, 1, 3, 5, 3, 4, 6, 6, 9, 10, 8, 9, 10, 2, 8, 10, 1, 3, 10, 1, 3, 7, 4, 8, 9, 8, 9, 10, 5, 8, 9, 5, 7, 10, 4, 6, 8, 6, 7, 8, 6, 9, 10, 5, 7, 8, 1, 5, 8, 6, 7, 9, 4, 7, 9, 8, 9, 10, 2, 8, 9, 2, 3, 10, 3, 7, 8, 2, 9, 10, 1, 2, 3, 2, 4, 7, 7, 8, 9, 2, 4, 10, 2, 5, 6, 1, 4, 10, 3, 4, 10, 3, 9, 10, 2, 7, 8, 2, 4, 5, 4, 5, 7, 2, 5, 7, 1, 6, 7, 4, 8, 9, 1, 2, 7, 1, 3, 10, 7, 9, 10, 2, 3, 10, 3, 5, 10, 1, 7, 9, 4, 8, 10];
rreq = [|5, 5, 4, 7, 6, 4, 7, 6, 5, 9, 7, 6, 1, 1, 1, 8, 4, 4, 6, 5, 5, 7, 7, 4, 6, 4, 3, 3, 3, 3, 7, 7, 5, 7, 5, 4, 6, 6, 5, 7, 6, 6, 4, 3, 1, 5, 5, 5, 8, 7, 6, 6, 5, 3, 6, 5, 3, 9, 9, 9, 5, 4, 4, 8, 5, 3, 10, 9, 9, 2, 2, 2, 7, 6, 4, 3, 2, 2, 7, 4, 4, 10, 9, 8, 4, 3, 2, 6, 4, 3, 9, 7, 7, 7, 5, 5, 10, 9, 8, 3, 2, 1, 8, 7, 6, 7, 7, 7, 5, 5, 1, 6, 5, 5, 8, 5, 3, 7, 7, 7, 6, 4, 4, 9, 7, 4, 8, 7, 7, 9, 8, 8, 8, 6, 5, 5, 3, 2, 8, 8, 8, 9, 6, 6, 3, 3, 2, 7, 5, 5, 9, 7, 6, 6, 5, 3, 7, 7, 6, 6, 5, 4, 6, 5, 4, 4, 2, 1, 6, 3, 2, 10, 7, 6, 8, 6, 4, 2, 2, 2, 3, 3, 2, 4, 2, 2, 6, 5, 3, 4, 3, 3, 4, 4, 4, 3, 2, 2, 8, 5, 3, 3, 2, 2, 4, 3, 1, 8, 7, 6, 8, 5, 5, 5, 4, 4, 7, 5, 4, 10, 6, 5, 6, 5, 4, 7, 7, 4, 5, 5, 5, 4, 4, 4, 6, 4, 2, 3, 1, 1, 4, 2, 2, 8, 8, 7, 4, 3, 3, 5, 5, 5, 8, 4, 3, 2, 1, 1, 8, 6, 5, 9, 5, 3, 7, 3, 1, 10, 8, 8, 7, 3, 2, 5, 4, 3, 7, 6, 5, 3, 2, 2, 8, 4, 3, 5, 3, 1, 7, 7, 2, 4, 3, 3, 5, 5, 5, 3, 2, 1
 |9, 7, 7, 6, 3, 2, 8, 7, 6, 4, 3, 3, 8, 6, 3, 4, 4, 3, 7, 3, 2, 3, 2, 2, 8, 4, 1, 10, 8, 5, 5, 4, 2, 4, 2, 2, 3, 2, 2, 9, 8, 7, 7, 6, 4, 2, 2, 2, 4, 4, 4, 5, 4, 3, 4, 3, 3, 9, 8, 8, 8, 8, 7, 8, 5, 4, 9, 4, 4, 6, 4, 3, 7, 6, 6, 9, 7, 7, 6, 6, 5, 7, 4, 3, 6, 5, 2, 7, 6, 5, 8, 7, 6, 3, 3, 3, 8, 7, 4, 7, 5, 5, 9, 8, 7, 7, 7, 6, 2, 2, 2, 8, 7, 7, 9, 8, 7, 7, 4, 2, 7, 3, 2, 8, 7, 5, 6, 5, 5, 4, 2, 2, 5, 4, 4, 8, 8, 5, 7, 5, 3, 8, 5, 5, 4, 4, 2, 8, 8, 7, 8, 7, 7, 4, 3, 2, 5, 4, 3, 9, 8, 7, 9, 7, 7, 6, 6, 3, 7, 6, 4, 6, 4, 3, 4, 4, 4, 4, 4, 4, 5, 4, 3, 5, 4, 4, 6, 4, 3, 2, 2, 2, 4, 4, 3, 7, 5, 4, 9, 9, 9, 6, 5, 4, 5, 3, 2, 6, 3, 3, 5, 5, 5, 10, 9, 8, 6, 4, 4, 4, 4, 4, 10, 9, 8, 5, 4, 4, 6, 5, 4, 7, 6, 5, 6, 5, 3, 10, 7, 6, 9, 9, 9, 4, 4, 4, 7, 6, 6, 10, 9, 9, 9, 8, 7, 7, 7, 5, 10, 9, 9, 4, 3, 3, 8, 6, 3, 6, 4, 4, 7, 7, 7, 4, 4, 4, 9, 5, 2, 8, 8, 4, 10, 8, 8, 7, 6, 6, 6, 6, 6, 7, 4, 4, 3, 3, 1, 9, 8, 7
 |2, 2, 2, 7, 7, 7, 3, 1, 1, 2, 1, 1, 7, 6, 5, 5, 5, 5, 7, 6, 5, 8, 7, 5, 9, 9, 9, 10, 8, 7, 4, 2, 1, 3, 3, 2, 4, 4, 3, 9, 6, 4, 9, 8, 7, 2, 2, 2, 1, 1, 1, 9, 8, 8, 4, 4, 4, 9, 6, 5, 5, 5, 5, 5, 3, 1, 6, 4, 3, 10, 7, 1, 9, 6, 6, 2, 2, 2, 9, 9, 9, 8, 6, 2, 6, 5, 5, 9, 9, 8, 4, 4, 4, 9, 8, 7, 7, 6, 4, 8, 7, 7, 4, 4, 4, 4, 2, 2, 10, 8, 4, 4, 2, 1, 7, 6, 6, 4, 4, 4, 9, 8, 8, 8, 6, 4, 4, 4, 4, 7, 4, 1, 6, 6, 3, 7, 7, 7, 7, 4, 2, 4, 4, 4, 6, 4, 3, 7, 5, 4, 9, 5, 5, 2, 1, 1, 5, 3, 1, 2, 2, 2, 10, 10, 10, 9, 8, 7, 2, 1, 1, 6, 4, 2, 7, 5, 5, 7, 7, 7, 10, 10, 10, 8, 4, 4, 8, 8, 8, 9, 7, 6, 6, 6, 6, 8, 8, 6, 8, 6, 5, 6, 5, 4, 8, 8, 8, 3, 2, 2, 2, 2, 2, 10, 10, 10, 5, 4, 1, 3, 3, 2, 5, 2, 1, 7, 5, 3, 5, 3, 3, 6, 6, 5, 7, 7, 7, 4, 3, 3, 8, 5, 5, 7, 7, 7, 8, 4, 3, 5, 4, 4, 5, 5, 2, 7, 6, 3, 8, 8, 7, 5, 5, 5, 5, 4, 1, 7, 7, 6, 10, 10, 10, 8, 7, 6, 5, 4, 1, 4, 4, 4, 6, 6, 6, 4, 3, 3, 4, 2, 2, 5, 5, 5, 3, 3, 3, 8, 6, 4
 |6, 5, 3, 9, 8, 5, 5, 4, 3, 6, 5, 3, 6, 6, 6, 8, 4, 4, 8, 5, 2, 9, 7, 7, 6, 4, 4, 6, 5, 3, 3, 2, 2, 5, 4, 3, 3, 3, 2, 5, 5, 3, 9, 8, 7, 2, 2, 2, 9, 8, 7, 5, 5, 5, 9, 8, 7, 6, 6, 6, 5, 3, 3, 2, 2, 2, 10, 8, 8, 6, 6, 5, 6, 5, 5, 9, 7, 7, 4, 4, 3, 9, 6, 5, 5, 4, 4, 4, 4, 4, 7, 6, 1, 8, 5, 3, 5, 4, 4, 4, 2, 1, 4, 4, 4, 8, 8, 7, 9, 9, 8, 7, 7, 5, 8, 6, 3, 4, 4, 3, 7, 6, 4, 9, 8, 8, 3, 3, 3, 8, 7, 5, 5, 3, 1, 10, 9, 9, 6, 6, 6, 1, 1, 1, 6, 4, 3, 4, 3, 2, 4, 4, 4, 7, 5, 3, 7, 6, 6, 4, 4, 4, 1, 1, 1, 5, 4, 4, 6, 5, 5, 8, 7, 6, 9, 8, 7, 9, 9, 9, 2, 2, 2, 7, 7, 7, 8, 7, 7, 7, 4, 4, 8, 7, 3, 7, 7, 4, 6, 3, 2, 8, 7, 5, 5, 3, 1, 9, 9, 8, 7, 4, 3, 9, 6, 3, 9, 8, 8, 9, 9, 8, 10, 9, 8, 7, 5, 3, 7, 7, 6, 5, 3, 2, 3, 3, 3, 2, 1, 1, 6, 5, 4, 6, 6, 3, 10, 8, 8, 9, 7, 6, 8, 7, 4, 6, 4, 4, 7, 6, 3, 6, 6, 4, 8, 7, 7, 9, 8, 8, 5, 4, 3, 6, 6, 6, 8, 6, 3, 9, 7, 7, 9, 9, 9, 10, 10, 10, 10, 8, 8, 6, 5, 3, 9, 6, 6, 6, 6, 5
 |1, 1, 1, 7, 4, 3, 10, 8, 7, 5, 5, 3, 7, 5, 3, 6, 3, 2, 9, 9, 7, 9, 8, 8, 10, 6, 5, 8, 8, 8, 2, 2, 2, 7, 6, 6, 10, 8, 7, 8, 6, 4, 4, 3, 1, 4, 4, 4, 7, 6, 5, 7, 7, 3, 8, 8, 8, 7, 6, 5, 6, 5, 3, 3, 3, 1, 10, 6, 3, 8, 8, 6, 6, 5, 4, 8, 8, 7, 8, 7, 7, 8, 6, 6, 4, 3, 1, 10, 7, 4, 9, 7, 7, 7, 7, 4, 7, 4, 4, 3, 3, 3, 10, 9, 9, 4, 4, 2, 6, 5, 4, 3, 3, 2, 8, 8, 6, 7, 5, 3, 9, 7, 7, 5, 5, 4, 3, 3, 1, 7, 7, 7, 5, 5, 4, 8, 7, 7, 7, 7, 5, 5, 3, 1, 7, 4, 3, 5, 3, 2, 3, 3, 3, 9, 8, 8, 10, 6, 6, 5, 3, 3, 7, 5, 1, 3, 3, 3, 7, 4, 2, 7, 5, 5, 9, 8, 8, 7, 4, 3, 5, 4, 2, 4, 4, 3, 8, 6, 5, 8, 8, 5, 8, 7, 4, 1, 1, 1, 5, 4, 2, 9, 5, 5, 10, 7, 3, 9, 8, 8, 6, 5, 4, 6, 6, 4, 7, 6, 4, 6, 5, 5, 3, 2, 1, 1, 1, 1, 6, 5, 5, 7, 5, 2, 8, 7, 7, 7, 6, 6, 7, 6, 6, 3, 2, 1, 6, 5, 5, 5, 3, 3, 5, 3, 2, 10, 9, 8, 7, 4, 1, 10, 6, 5, 7, 5, 4, 4, 3, 3, 7, 5, 4, 10, 9, 9, 7, 6, 5, 3, 2, 2, 7, 5, 4, 10, 8, 8, 8, 7, 6, 9, 6, 4, 6, 5, 3, 8, 6, 6
 |2, 2, 2, 8, 7, 7, 1, 1, 1, 8, 6, 5, 8, 8, 5, 9, 5, 4, 8, 8, 8, 9, 9, 9, 8, 6, 5, 5, 4, 3, 8, 6, 4, 9, 9, 9, 8, 5, 5, 6, 4, 3, 6, 4, 3, 9, 8, 7, 9, 7, 6, 4, 4, 4, 5, 3, 2, 10, 9, 8, 10, 9, 9, 7, 6, 4, 5, 4, 2, 8, 4, 1, 6, 4, 3, 5, 2, 2, 8, 7, 6, 10, 4, 4, 4, 4, 3, 3, 3, 2, 5, 4, 4, 4, 4, 1, 5, 3, 3, 6, 4, 2, 7, 7, 7, 8, 6, 3, 1, 1, 1, 3, 2, 2, 7, 7, 6, 7, 3, 3, 8, 4, 2, 8, 7, 7, 4, 3, 3, 5, 4, 2, 7, 4, 3, 9, 8, 8, 7, 4, 3, 10, 10, 10, 6, 6, 5, 9, 9, 7, 8, 5, 4, 7, 4, 3, 8, 5, 4, 5, 4, 4, 5, 5, 5, 1, 1, 1, 5, 4, 4, 6, 5, 5, 8, 6, 4, 7, 6, 6, 6, 4, 3, 7, 7, 5, 6, 5, 4, 6, 5, 3, 8, 8, 6, 9, 7, 4, 8, 7, 6, 2, 2, 2, 8, 7, 4, 2, 1, 1, 9, 7, 3, 9, 6, 5, 10, 8, 8, 6, 4, 3, 7, 7, 5, 7, 5, 3, 8, 8, 5, 8, 8, 8, 4, 4, 4, 4, 3, 2, 6, 4, 4, 6, 6, 6, 7, 7, 7, 6, 6, 3, 10, 9, 9, 9, 4, 2, 6, 4, 3, 7, 3, 3, 5, 4, 4, 4, 4, 2, 6, 6, 6, 4, 4, 4, 6, 5, 5, 8, 8, 8, 6, 6, 4, 5, 3, 3, 2, 1, 1, 7, 6, 4, 8, 5, 5, 9, 8, 8|];